0 2290223 
1 2239617 
2 2234474 
3 2221101 
4 2129904 
5 2118752 
6 2100294 
7 2098501 
8 2070178 
9 2012031 
10 2005487 
11 1998687 
12 1898890 
13 1885677 
14 1841948 
15 1820055 
16 1775279 
17 1759552 
18 1714615 
19 1693974 
20 1664306 
21 1636091 
22 1594368 
23 1564734 
24 1564240 
25 1559298 
26 1553650 
27 1537895 
28 1525581 
29 1496103 
30 1454870 
31 1444122 
32 1397475 
33 1393657 
34 1370578 
35 1369209 
36 1352305 
37 1349162 
38 1274686 
39 1234005 
40 1229285 
41 1229285 

